;; translated from ./bv/jain_7_safe.c.vmt
;; original benchmark available at: https://es-static.fbk.eu/people/griggio/ic3ia/index.html
;; author: Alberto Griggio <griggio@fbk.eu>
(set-logic HORN)
(declare-fun state (Bool Bool Bool (_ BitVec 32) (_ BitVec 32) (_ BitVec 32) (_ BitVec 32) (_ BitVec 32) (_ BitVec 32) (_ BitVec 32)) Bool)
(assert (forall ((|.PC.2.next| Bool) (|x__1$main| (_ BitVec 32)) (|x__1$main.next| (_ BitVec 32)) (|z__5$main| (_ BitVec 32)) (|z__5$main.next| (_ BitVec 32)) (|y__3$main| (_ BitVec 32)) (|y__3$main.next| (_ BitVec 32)) (|cond__8$main.next| (_ BitVec 32)) (|cond__8$main| (_ BitVec 32)) (|__TEMP__8$main.next| (_ BitVec 32)) (|__TEMP__8$main| (_ BitVec 32)) (|__TEMP__7$main.next| (_ BitVec 32)) (|__TEMP__7$main| (_ BitVec 32)) (|__TEMP__6$main.next| (_ BitVec 32)) (|__TEMP__6$main| (_ BitVec 32)) (|__VERIFIER_nondet_int| (_ BitVec 32)) (|.PC.0| Bool) (|.PC.2| Bool) (|.PC.1| Bool) (|.PC.0.next| Bool) (|.PC.1.next| Bool)) (=> (let ((.def_15 (not .PC.2)))
(let ((.def_12 (not .PC.1)))
(let ((.def_10 (not .PC.0)))
(let ((.def_13 (and .def_10 .def_12)))
(let ((.def_16 (and .def_13 .def_15)))
.def_16))))) (state |.PC.0| |.PC.1| |.PC.2| |cond__8$main| |__TEMP__8$main| |__TEMP__7$main| |__TEMP__6$main| |x__1$main| |y__3$main| |z__5$main|))))
(assert (forall ((|.PC.2.next| Bool) (|x__1$main| (_ BitVec 32)) (|x__1$main.next| (_ BitVec 32)) (|z__5$main| (_ BitVec 32)) (|z__5$main.next| (_ BitVec 32)) (|y__3$main| (_ BitVec 32)) (|y__3$main.next| (_ BitVec 32)) (|cond__8$main.next| (_ BitVec 32)) (|cond__8$main| (_ BitVec 32)) (|__TEMP__8$main.next| (_ BitVec 32)) (|__TEMP__8$main| (_ BitVec 32)) (|__TEMP__7$main.next| (_ BitVec 32)) (|__TEMP__7$main| (_ BitVec 32)) (|__TEMP__6$main.next| (_ BitVec 32)) (|__TEMP__6$main| (_ BitVec 32)) (|__VERIFIER_nondet_int| (_ BitVec 32)) (|.PC.0| Bool) (|.PC.2| Bool) (|.PC.1| Bool) (|.PC.0.next| Bool) (|.PC.1.next| Bool)) (=> (and (state |.PC.0| |.PC.1| |.PC.2| |cond__8$main| |__TEMP__8$main| |__TEMP__7$main| |__TEMP__6$main| |x__1$main| |y__3$main| |z__5$main|) (let ((.def_125 (and .PC.0 .PC.1)))
(let ((.def_15 (not .PC.2)))
(let ((.def_126 (and .def_15 .def_125)))
(let ((.def_120 (and .PC.1.next .PC.0.next)))
(let ((.def_47 (not .PC.2.next)))
(let ((.def_121 (and .def_47 .def_120)))
(let ((.def_127 (and .def_121 .def_126)))
(let ((.def_116 (= x__1$main.next x__1$main)))
(let ((.def_113 (= z__5$main.next z__5$main)))
(let ((.def_111 (= y__3$main.next y__3$main)))
(let ((.def_28 (= cond__8$main cond__8$main.next)))
(let ((.def_112 (and .def_28 .def_111)))
(let ((.def_114 (and .def_112 .def_113)))
(let ((.def_32 (= __TEMP__8$main __TEMP__8$main.next)))
(let ((.def_115 (and .def_32 .def_114)))
(let ((.def_117 (and .def_115 .def_116)))
(let ((.def_36 (= __TEMP__7$main __TEMP__7$main.next)))
(let ((.def_118 (and .def_36 .def_117)))
(let ((.def_40 (= __TEMP__6$main __TEMP__6$main.next)))
(let ((.def_119 (and .def_40 .def_118)))
(let ((.def_122 (and .def_119 .def_121)))
(let ((.def_10 (not .PC.0)))
(let ((.def_109 (and .def_10 .PC.1)))
(let ((.def_110 (and .def_15 .def_109)))
(let ((.def_123 (and .def_110 .def_122)))
(let ((.def_90 (= cond__8$main.next (_ bv0 32))))
(let ((.def_91 (not .def_90)))
(let ((.def_83 (bvshl x__1$main.next (_ bv2 32))))
(let ((.def_80 (bvshl y__3$main.next (_ bv1 32))))
(let ((.def_81 (bvneg .def_80)))
(let ((.def_85 (bvadd .def_81 .def_83)))
(let ((.def_86 (bvadd z__5$main.next .def_85)))
(let ((.def_88 (= .def_86 (_ bv1048576 32))))
(let ((.def_92 (and .def_88 .def_91)))
(let ((.def_93 (not .def_92)))
(let ((.def_79 (= cond__8$main.next (_ bv1 32))))
(let ((.def_89 (or .def_79 .def_88)))
(let ((.def_94 (and .def_89 .def_93)))
(let ((.def_72 (bvshl __TEMP__8$main.next (_ bv22 32))))
(let ((.def_75 (bvadd .def_72 z__5$main)))
(let ((.def_76 (= z__5$main.next .def_75)))
(let ((.def_64 (bvshl __TEMP__7$main.next (_ bv21 32))))
(let ((.def_67 (bvadd .def_64 y__3$main)))
(let ((.def_68 (= y__3$main.next .def_67)))
(let ((.def_56 (bvshl __TEMP__6$main.next (_ bv20 32))))
(let ((.def_59 (bvadd .def_56 x__1$main)))
(let ((.def_60 (= x__1$main.next .def_59)))
(let ((.def_54 (= __TEMP__6$main.next __VERIFIER_nondet_int)))
(let ((.def_61 (and .def_54 .def_60)))
(let ((.def_53 (= __TEMP__7$main.next __VERIFIER_nondet_int)))
(let ((.def_62 (and .def_53 .def_61)))
(let ((.def_69 (and .def_62 .def_68)))
(let ((.def_52 (= __TEMP__8$main.next __VERIFIER_nondet_int)))
(let ((.def_70 (and .def_52 .def_69)))
(let ((.def_77 (and .def_70 .def_76)))
(let ((.def_95 (and .def_77 .def_94)))
(let ((.def_105 (and .def_91 .def_95)))
(let ((.def_43 (not .PC.1.next)))
(let ((.def_45 (and .def_43 .PC.0.next)))
(let ((.def_48 (and .def_45 .def_47)))
(let ((.def_106 (and .def_48 .def_105)))
(let ((.def_12 (not .PC.1)))
(let ((.def_101 (and .PC.0 .def_12)))
(let ((.def_102 (and .def_15 .def_101)))
(let ((.def_107 (and .def_102 .def_106)))
(let ((.def_97 (not .PC.0.next)))
(let ((.def_98 (and .PC.1.next .def_97)))
(let ((.def_99 (and .def_47 .def_98)))
(let ((.def_96 (and .def_90 .def_95)))
(let ((.def_100 (and .def_96 .def_99)))
(let ((.def_103 (and .def_100 .def_102)))
(let ((.def_24 (= z__5$main.next (_ bv0 32))))
(let ((.def_21 (= y__3$main.next (_ bv0 32))))
(let ((.def_19 (= x__1$main.next (_ bv0 32))))
(let ((.def_22 (and .def_19 .def_21)))
(let ((.def_25 (and .def_22 .def_24)))
(let ((.def_29 (and .def_25 .def_28)))
(let ((.def_33 (and .def_29 .def_32)))
(let ((.def_37 (and .def_33 .def_36)))
(let ((.def_41 (and .def_37 .def_40)))
(let ((.def_49 (and .def_41 .def_48)))
(let ((.def_13 (and .def_10 .def_12)))
(let ((.def_16 (and .def_13 .def_15)))
(let ((.def_50 (and .def_16 .def_49)))
(let ((.def_104 (or .def_50 .def_103)))
(let ((.def_108 (or .def_104 .def_107)))
(let ((.def_124 (or .def_108 .def_123)))
(let ((.def_128 (or .def_124 .def_127)))
.def_128))))))))))))))))))))))))))))))))))))))))))))))))))))))))))))))))))))))))))))))))))))))))) (state |.PC.0.next| |.PC.1.next| |.PC.2.next| |cond__8$main.next| |__TEMP__8$main.next| |__TEMP__7$main.next| |__TEMP__6$main.next| |x__1$main.next| |y__3$main.next| |z__5$main.next|))))
(assert (forall ((|.PC.2.next| Bool) (|x__1$main| (_ BitVec 32)) (|x__1$main.next| (_ BitVec 32)) (|z__5$main| (_ BitVec 32)) (|z__5$main.next| (_ BitVec 32)) (|y__3$main| (_ BitVec 32)) (|y__3$main.next| (_ BitVec 32)) (|cond__8$main.next| (_ BitVec 32)) (|cond__8$main| (_ BitVec 32)) (|__TEMP__8$main.next| (_ BitVec 32)) (|__TEMP__8$main| (_ BitVec 32)) (|__TEMP__7$main.next| (_ BitVec 32)) (|__TEMP__7$main| (_ BitVec 32)) (|__TEMP__6$main.next| (_ BitVec 32)) (|__TEMP__6$main| (_ BitVec 32)) (|__VERIFIER_nondet_int| (_ BitVec 32)) (|.PC.0| Bool) (|.PC.2| Bool) (|.PC.1| Bool) (|.PC.0.next| Bool) (|.PC.1.next| Bool)) (=> (state |.PC.0| |.PC.1| |.PC.2| |cond__8$main| |__TEMP__8$main| |__TEMP__7$main| |__TEMP__6$main| |x__1$main| |y__3$main| |z__5$main|) (let ((.def_125 (and .PC.0 .PC.1)))
(let ((.def_15 (not .PC.2)))
(let ((.def_126 (and .def_15 .def_125)))
(let ((.def_129 (not .def_126)))
.def_129)))))))
(check-sat)
